(set-info :smt-lib-version 2.6)
(set-logic QF_AUFLIA)
(set-info :source |
Benchmarks used in the followin paper:
Big proof engines as little proof engines: new results on rewrite-based satisfiability procedure
Alessandro Armando, Maria Paola Bonacina, Silvio Ranise, Stephan Schulz. 
PDPAR'05
http://www.ai.dist.unige.it/pdpar05/


|)
(set-info :category "crafted")
(set-info :status unsat)
(declare-fun a_118 () (Array Int Int))
(declare-fun a_120 () (Array Int Int))
(declare-fun a_122 () (Array Int Int))
(declare-fun a_124 () (Array Int Int))
(declare-fun a_126 () (Array Int Int))
(declare-fun a_128 () (Array Int Int))
(declare-fun a_130 () (Array Int Int))
(declare-fun a_132 () (Array Int Int))
(declare-fun a_133 () (Array Int Int))
(declare-fun a_134 () (Array Int Int))
(declare-fun a_136 () (Array Int Int))
(declare-fun a_138 () (Array Int Int))
(declare-fun e_117 () Int)
(declare-fun e_119 () Int)
(declare-fun e_121 () Int)
(declare-fun e_123 () Int)
(declare-fun e_125 () Int)
(declare-fun e_127 () Int)
(declare-fun e_129 () Int)
(declare-fun e_131 () Int)
(declare-fun e_135 () Int)
(declare-fun e_137 () Int)
(declare-fun e_140 () Int)
(declare-fun e_141 () Int)
(declare-fun i_139 () Int)
(declare-fun a1 () (Array Int Int))
(declare-fun i1 () Int)
(declare-fun i2 () Int)
(declare-fun i3 () Int)
(declare-fun sk ((Array Int Int) (Array Int Int)) Int)
(assert (= a_118 (store a1 i2 e_117)))
(assert (= a_120 (store a_118 i1 e_119)))
(assert (= a_122 (store a_120 i2 e_121)))
(assert (= a_124 (store a_122 i3 e_123)))
(assert (= a_126 (store a_124 i1 e_125)))
(assert (= a_128 (store a_126 i2 e_127)))
(assert (= a_130 (store a_128 i3 e_129)))
(assert (= a_132 (store a_130 i2 e_131)))
(assert (= a_133 (store a_124 i2 e_127)))
(assert (= a_134 (store a_133 i1 e_125)))
(assert (= a_136 (store a_134 i2 e_135)))
(assert (= a_138 (store a_136 i3 e_137)))
(assert (= e_117 (select a1 i1)))
(assert (= e_119 (select a1 i2)))
(assert (= e_121 (select a_120 i3)))
(assert (= e_123 (select a_120 i2)))
(assert (= e_125 (select a_124 i2)))
(assert (= e_127 (select a_124 i1)))
(assert (= e_129 (select a_128 i2)))
(assert (= e_131 (select a_128 i3)))
(assert (= e_135 (select a_134 i3)))
(assert (= e_137 (select a_134 i2)))
(assert (= e_140 (select a_132 i_139)))
(assert (= e_141 (select a_138 i_139)))
(assert (= i_139 (sk a_132 a_138)))
(assert (not (= e_140 e_141)))
(check-sat)
(exit)
